unsat
(:max-memory         17.95
 :memory             17.95
 :nlsat-conflicts    4
 :nlsat-propagations 10
 :nlsat-stages       4
 :num-allocs         18229
 :rlimit-count       685
 :time               0.00
 :total-time         0.01)
